instances/in_40_20_9_2.dzn
n = 40;
k = 20;
h = 9;
tiles = array2d(1..n, 1..2,
[ 5,17
, 12,5
, 2,11
, 9,5
, 5,9
, 15,4
, 16,13
, 19,12
, 16,16
, 5,5
, 19,13
, 14,11
, 12,15
, 14,10
, 19,15
, 10,3
, 15,14
, 12,5
, 17,4
, 8,4
, 10,16
, 18,8
, 18,12
, 5,10
, 8,16
, 14,3
, 16,20
, 19,8
, 12,20
, 3,4
, 5,18
, 20,8
, 4,4
, 5,20
, 5,11
, 10,4
, 2,19
, 5,4
, 5,5
, 11,18
]);