instances/in_40_20_9_2.lp
#const n = 40.
#const k = 20.
#const h = 9.
tile(1,5,17).
tile(2,12,5).
tile(3,2,11).
tile(4,9,5).
tile(5,5,9).
tile(6,15,4).
tile(7,16,13).
tile(8,19,12).
tile(9,16,16).
tile(10,5,5).
tile(11,19,13).
tile(12,14,11).
tile(13,12,15).
tile(14,14,10).
tile(15,19,15).
tile(16,10,3).
tile(17,15,14).
tile(18,12,5).
tile(19,17,4).
tile(20,8,4).
tile(21,10,16).
tile(22,18,8).
tile(23,18,12).
tile(24,5,10).
tile(25,8,16).
tile(26,14,3).
tile(27,16,20).
tile(28,19,8).
tile(29,12,20).
tile(30,3,4).
tile(31,5,18).
tile(32,20,8).
tile(33,4,4).
tile(34,5,20).
tile(35,5,11).
tile(36,10,4).
tile(37,2,19).
tile(38,5,4).
tile(39,5,5).
tile(40,11,18).
